CMPL model generation - running

CMPL version: 1.11.0
Authors: Thomas Schleiff, Mike Steglich
Distributed under the GPLv3 

create model instance ...
write model instance ...
CMPL model generation - finished

Solver - running


Welcome to IBM(R) ILOG(R) CPLEX(R) Interactive Optimizer 12.7.1.0
  with Simplex, Mixed Integer & Barrier Optimizers
5725-A06 5725-A29 5724-Y48 5724-Y49 5724-Y54 5724-Y55 5655-Y21
Copyright IBM Corp. 1988, 2017.  All Rights Reserved.

Type 'help' for a list of available commands.
Type 'help' followed by a command name for more
information on commands.

CPLEX> Specified objective sense: MINIMIZE
Selected objective  name:  line[1]
Selected RHS        name:  RHS
Selected bound      name:  BOUND
Problem '/tmp/cmpl.T23522.mps' read.
Read time = 0.06 sec. (10.11 ticks)
CPLEX> CPXPARAM_Read_APIEncoding                        "UTF-8"
Tried aggregator 3 times.
MIP Presolve eliminated 24104 rows and 37757 columns.
MIP Presolve modified 425 coefficients.
Aggregator did 696 substitutions.
Reduced MIP has 3122 rows, 4002 columns, and 11860 nonzeros.
Reduced MIP has 3792 binaries, 0 generals, 0 SOSs, and 0 indicators.
Presolve time = 0.06 sec. (49.97 ticks)
Found incumbent of value 858.146099 after 0.14 sec. (132.22 ticks)
Probing fixed 6 vars, tightened 0 bounds.
Probing time = 0.02 sec. (5.11 ticks)
Tried aggregator 1 time.
MIP Presolve eliminated 0 rows and 6 columns.
MIP Presolve modified 25 coefficients.
Reduced MIP has 3122 rows, 3996 columns, and 11848 nonzeros.
Reduced MIP has 3996 binaries, 0 generals, 0 SOSs, and 0 indicators.
Presolve time = 0.01 sec. (10.07 ticks)
Probing time = 0.01 sec. (2.83 ticks)
Clique table members: 7208.
MIP emphasis: balance optimality and feasibility.
MIP search method: dynamic search.
Parallel mode: none, using 1 thread.
Root relaxation solution time = 0.00 sec. (5.31 ticks)

        Nodes                                         Cuts/
   Node  Left     Objective  IInf  Best Integer    Best Bound    ItCnt     Gap

*     0+    0                          858.1461      -46.2864           105.39%
      0     0       41.7362    22      858.1461       41.7362       77   95.14%
*     0+    0                           87.3934       41.7362            52.24%
*     0+    0                           42.2391       41.7362             1.19%
      0     0        cutoff             42.2391                     77    0.00%
Elapsed time = 0.21 sec. (172.97 ticks, tree = 0.01 MB, solutions = 3)

Root node processing (before b&c):
  Real time             =    0.21 sec. (174.79 ticks)
Sequential b&c:
  Real time             =    0.00 sec. (0.00 ticks)
                          ------------
Total (root+branch&cut) =    0.21 sec. (174.79 ticks)

Solution pool: 3 solutions saved.

MIP - Integer optimal solution:  Objective =  4.2239100000e+01
Solution time =    0.21 sec.  Iterations = 77  Nodes = 0
Deterministic time = 174.92 ticks  (839.37 ticks/sec)

CPLEX> Incumbent solution written to file '/tmp/cmpl.T23522.gsol'.
CPLEX> 
CMPL: Time used for model generation: 1 seconds
CMPL: Time used for solving the model: 1 seconds


Solution written to ASCII file: results/output_generated_conf_0.1/2016-05-02-5/fair-nonlinear.sol

Solver - finished
